c Random generated cnf formula, satisfiable: false
p cnf 10 50
3 -6 -5 0
4 -8 5 0
-6 10 7 0
1 -6 9 0
5 -6 8 0
10 4 -9 0
-3 -7 -10 0
-6 4 -8 0
-10 -9 -1 0
-1 9 -4 0
5 9 8 0
-1 -10 -9 0
-9 -2 -5 0
2 9 4 0
3 4 6 0
-10 3 -1 0
7 -3 -1 0
8 -5 10 0
-5 4 -2 0
10 -4 9 0
-6 1 -8 0
1 3 -7 0
-6 7 5 0
10 9 -3 0
9 3 1 0
-3 7 -6 0
-1 -4 -10 0
-7 5 2 0
-5 -1 2 0
-3 -5 -8 0
-2 7 -1 0
1 5 7 0
-5 4 2 0
7 1 -9 0
-7 10 9 0
7 -2 10 0
6 10 3 0
5 -4 10 0
-9 4 -10 0
-3 2 7 0
7 1 -4 0
3 -4 -1 0
10 -5 -1 0
5 3 9 0
-6 -5 9 0
5 -10 -9 0
7 -8 -3 0
4 -5 -1 0
3 6 -8 0
-8 -3 -2 0
